nbObjet = 10;
poidsMax = 150.0;
valeur = [412, 648, 681, 843, 150, 920, 832, 393, 787, 855];
poids = [71.1, 136.2, 37.4, 78.9, 63.3, 57.4, 65.8, 73.0, 142.7, 99.9];
incomp = [[0, 1, 1, 0, 1, 0, 0, 0, 1, 1], [1, 0, 1, 1, 1, 1, 1, 1, 1, 1], [1, 1, 0, 1, 1, 1, 1, 1, 1, 1], [0, 1, 1, 0, 1, 1, 1, 1, 1, 1], [1, 1, 1, 1, 0, 1, 1, 1, 0, 1], [0, 1, 1, 1, 1, 0, 1, 1, 1, 1], [0, 1, 1, 1, 1, 1, 0, 0, 1, 1], [0, 1, 1, 1, 1, 1, 0, 0, 1, 1], [1, 1, 1, 1, 0, 1, 1, 1, 0, 1], [1, 1, 1, 1, 1, 1, 1, 1, 1, 0]];